SAT
-84 21 -51 -1 46 42 -3 72 55 -65 -80 92 -88 -28 63 -71 -19 -83 15 100 -52 -43 26 -48 70 -10 -67 14 98 -44 -34 58 -18 79 -87 -59 -66 86 91 -6 27 -35 41 -49 -82 -5 -96 -17 -50 4 36 74 23 -8 -54 85 -11 62 53 -68 -69 39 -25 -30 45 -7 -33 73 -31 -37 -99 -57 12 -47 -97 40 -2 22 75 94 -20 61 -78 -24 90 95 -38 -81 -56 64 -9 -76 -13 -93 29 -89 77 60 -16 32 0
